196334.24,44.43,55.09
151861.19,57.44,71.23
187350.97,46.56,57.74
172117.42,50.68,62.85
165355.08,52.75,65.42
174173.55,50.08,62.1
180344.78,48.37,59.98
177918.37,49.03,60.8
148861.56,58.59,72.66
153881.94,56.68,70.29
170759.8,51.08,63.35
172383.83,50.6,62.75
188968.36,46.16,57.24
170806.16,51.07,63.33
171384.01,50.9,63.11
173079.95,50.4,62.5
185412.51,47.04,58.34
184452.07,47.29,58.64
154087.36,56.61,70.2
161543.99,54.0,66.96
